8464
18, 31, 22, 1, 49, 32, 45, 41, 19, 8, 9, 10, 43, 33, 51, 12, 11, 52, 14, 47, 13, 26, 27, 28, 46, 25, 4, 15, 6, 5, 24, 48, 37, 38, 40, 39, 36, 34, 35, 44, 29, 16, 50, 20, 23, 30, 7, 2, 42, 21, 17, 3
